c FILE /home/rafael/Documents/HappySet/MIHS/inputs/happygen/output/graph_d_regular_k3_p0.5_v100_20241127_084019.txt
c SOURCE This is a d-regular graph formed for the happy graph colouring problem.
c DESCRIPTION It was generated using the problem generator of Rhyd Lewis
c
c GRAPH STATS
c Seed                             = 1449798024
c Number of Nodes                  = 100
c Number of colours k              = 3
c Number of pre-assignments        = 50
c Degree of all vertices           = 6
c Density                          = 0.0606061
c 
c The degrees of nodes 1 to 100, respectively, are as follows 
c [6, 6, 6, 6, 6, 6, 6, 6, 6, 6, 6, 6, 6, 6, 6, 6, 6, 6, 6, 6, 6, 6, 6, 6, 6, 6, 
c  6, 6, 6, 6, 6, 6, 6, 6, 6, 6, 6, 6, 6, 6, 6, 6, 6, 6, 6, 6, 6, 6, 6, 6, 6, 
c  6, 6, 6, 6, 6, 6, 6, 6, 6, 6, 6, 6, 6, 6, 6, 6, 6, 6, 6, 6, 6, 6, 6, 6, 6, 
c  6, 6, 6, 6, 6, 6, 6, 6, 6, 6, 6, 6, 6, 6, 6, 6, 6, 6, 6, 6, 6, 6, 6, 6] 
c  
p edge 100 300 3
e 1 5
e 1 22
e 1 24
e 1 27
e 1 38
e 1 74
e 2 15
e 2 26
e 2 51
e 2 70
e 2 77
e 2 80
e 3 7
e 3 45
e 3 64
e 3 67
e 3 85
e 3 95
e 4 26
e 4 41
e 4 59
e 4 77
e 4 78
e 4 86
e 5 13
e 5 22
e 5 25
e 5 39
e 5 56
e 6 34
e 6 38
e 6 53
e 6 72
e 6 88
e 6 93
e 7 19
e 7 37
e 7 73
e 7 77
e 7 92
e 8 45
e 8 64
e 8 65
e 8 75
e 8 83
e 8 91
e 9 42
e 9 48
e 9 51
e 9 65
e 9 82
e 9 93
e 10 13
e 10 39
e 10 73
e 10 89
e 10 95
e 10 97
e 11 22
e 11 79
e 11 90
e 11 95
e 11 98
e 11 100
e 12 21
e 12 29
e 12 30
e 12 46
e 12 83
e 12 86
e 13 19
e 13 24
e 13 37
e 13 79
e 14 23
e 14 37
e 14 51
e 14 66
e 14 75
e 14 87
e 15 18
e 15 24
e 15 29
e 15 86
e 15 98
e 16 27
e 16 33
e 16 35
e 16 58
e 16 61
e 16 82
e 17 31
e 17 35
e 17 36
e 17 60
e 17 93
e 17 98
e 18 43
e 18 50
e 18 56
e 18 89
e 18 99
e 19 66
e 19 68
e 19 80
e 19 97
e 20 21
e 20 55
e 20 68
e 20 69
e 20 82
e 20 88
e 21 74
e 21 76
e 21 78
e 21 92
e 22 23
e 22 58
e 22 74
e 23 57
e 23 63
e 23 71
e 23 74
e 24 50
e 24 84
e 24 99
e 25 47
e 25 56
e 25 67
e 25 69
e 25 86
e 26 33
e 26 36
e 26 66
e 26 92
e 27 50
e 27 55
e 27 71
e 27 94
e 28 53
e 28 59
e 28 70
e 28 87
e 28 88
e 28 98
e 29 40
e 29 42
e 29 52
e 29 61
e 30 54
e 30 63
e 30 78
e 30 92
e 30 100
e 31 41
e 31 54
e 31 71
e 31 75
e 31 81
e 32 54
e 32 55
e 32 70
e 32 71
e 32 84
e 32 96
e 33 46
e 33 52
e 33 63
e 33 94
e 34 39
e 34 41
e 34 44
e 34 67
e 34 96
e 35 42
e 35 45
e 35 47
e 35 57
e 36 44
e 36 69
e 36 81
e 36 88
e 37 55
e 37 85
e 37 96
e 38 65
e 38 67
e 38 89
e 38 93
e 39 62
e 39 81
e 39 99
e 40 42
e 40 43
e 40 46
e 40 51
e 40 72
e 41 62
e 41 72
e 41 95
e 42 57
e 42 76
e 43 55
e 43 61
e 43 67
e 43 97
e 44 64
e 44 69
e 44 90
e 44 95
e 45 60
e 45 79
e 45 87
e 46 82
e 46 83
e 46 98
e 47 53
e 47 58
e 47 60
e 47 99
e 48 79
e 48 84
e 48 88
e 48 90
e 48 96
e 49 59
e 49 61
e 49 75
e 49 83
e 49 84
e 49 99
e 50 60
e 50 79
e 50 89
e 51 64
e 51 81
e 52 78
e 52 79
e 52 89
e 52 94
e 53 63
e 53 85
e 53 97
e 54 74
e 54 80
e 54 86
e 55 66
e 56 65
e 56 91
e 56 93
e 57 61
e 57 71
e 57 91
e 58 61
e 58 68
e 58 81
e 59 85
e 59 91
e 59 98
e 60 68
e 60 74
e 62 72
e 62 73
e 62 77
e 62 84
e 63 80
e 63 99
e 64 77
e 64 100
e 65 84
e 65 100
e 66 71
e 66 86
e 67 90
e 68 76
e 68 77
e 69 80
e 69 96
e 70 80
e 70 81
e 70 92
e 72 89
e 72 90
e 73 76
e 73 83
e 73 85
e 75 82
e 75 91
e 76 82
e 76 94
e 78 93
e 78 100
e 83 90
e 85 87
e 87 96
e 87 97
e 88 95
e 91 100
e 92 94
e 94 97
n 1 3
n 3 3
n 4 3
n 6 1
n 7 3
n 8 1
n 12 2
n 13 3
n 15 2
n 23 2
n 25 3
n 27 3
n 29 2
n 31 1
n 33 2
n 35 2
n 36 3
n 37 3
n 39 3
n 40 2
n 42 2
n 44 3
n 46 2
n 48 3
n 49 1
n 51 2
n 56 3
n 57 2
n 60 2
n 62 3
n 66 1
n 67 3
n 68 2
n 69 3
n 70 3
n 75 1
n 76 2
n 78 3
n 79 3
n 80 3
n 85 3
n 87 3
n 89 2
n 90 3
n 92 3
n 95 3
n 96 3
n 97 3
n 98 2
n 100 3
